peakDumbCharging = 14800; 
Machine = anon_enum(16); 
machineSpeed = [3700,3700,3700,3700,3700,3700,3700,3700,3700,3700,3700,3700,3700,3700,3700,3700]; 
machineLoad = [3700,3700,3700,3700,3700,3700,3700,3700,3700,3700,3700,3700,3700,3700,3700,3700]; 
Car = anon_enum(9); 
demandCar = [4760,19960,2680,5160,4920,4040,2080,23800,12920]; 
arrivalCar = [65,55,53,51,50,49,45,45,38]; 
departureCar = [67,62,55,54,53,51,47,54,44]; 
